8383
29, 30, 2, 7, 42, 21, 17, 3, 41, 8, 9, 10, 19, 45, 32, 49, 36, 35, 34, 39, 40, 37, 38, 48, 24, 5, 15, 6, 4, 43, 33, 12, 28, 27, 26, 47, 13, 14, 52, 11, 51, 25, 46, 50, 20, 23, 31, 18, 22, 1, 44, 16
